NAME: random89
TYPE: TSP
DIMENSION: 89
EDGE_WEIGHT_TYPE: EXPLICIT
EDGE_WEIGHT_FORMAT: FULL_MATRIX
EDGE_WEIGHT_SECTION
0 125 25 125 125 125 125 125 20 125 21 125 31 125 125 16 125 125 125 125 24 125 10 125 43 28 125 125 125 125 25 125 125 125 125 125 125 125 125 125 125 125 125 125 125 125 125 125 125 18 125 125 14 18 125 125 27 36 125 125 125 125 125 5 125 125 125 125 125 125 125 125 125 125 125 125 27 5 9 125 125 125 125 125 15 24 125 125 125
125 0 32 125 125 125 125 35 125 125 33 125 125 125 125 15 8 9 125 125 32 125 125 125 125 4 125 125 26 125 125 125 125 125 15 125 125 125 125 125 125 125 125 7 125 125 125 125 22 125 125 125 17 125 24 125 22 125 125 125 125 125 125 125 125 125 125 125 125 125 125 125 125 125 125 125 125 24 24 125 19 25 125 125 125 125 125 125 125
25 32 0 125 125 125 125 125 16 29 5 125 30 125 125 29 40 38 125 125 125 41 30 125 125 28 125 125 125 40 9 125 125 125 42 125 125 125 125 125 125 125 125 38 125 125 125 125 125 29 125 125 29 125 125 125 44 125 125 125 125 125 125 125 125 125 125 41 125 47 125 125 125 125 125 125 125 24 16 125 125 125 125 125 18 125 125 125 125
125 125 125 0 8 125 125 9 125 125 125 125 125 20 125 125 125 125 11 125 18 125 125 29 125 125 11 125 24 125 125 125 125 125 25 125 125 13 23 125 125 125 125 125 125 125 125 125 125 125 125 125 33 125 19 125 18 125 125 6 125 35 125 125 125 36 18 125 125 125 125 125 125 125 125 125 20 125 125 125 125 125 15 41 125 125 20 10 125
125 125 125 8 0 125 30 1 125 125 125 125 125 125 125 125 125 125 19 125 22 125 125 125 125 125 19 125 16 125 125 125 125 125 21 125 125 17 14 125 125 125 125 125 125 125 125 125 125 125 125 125 125 125 12 125 17 125 125 10 125 44 125 125 125 125 21 125 125 125 125 125 125 125 23 125 125 125 125 125 20 37 22 47 125 125 26 18 125
125 125 125 125 125 0 125 125 33 24 125 125 19 125 17 125 125 125 125 125 125 18 125 125 26 125 125 125 125 26 125 125 125 125 125 125 125 125 125 13 125 125 125 125 125 125 41 34 125 24 125 7 125 125 125 125 125 125 9 125 6 125 125 125 125 125 125 31 32 15 125 125 125 13 125 125 125 125 125 125 125 125 125 125 125 125 125 125 125
125 125 125 125 30 125 0 125 125 125 125 125 125 125 125 125 125 125 21 30 125 125 125 31 125 125 125 125 125 125 125 125 125 125 125 125 125 125 42 125 125 125 125 125 31 22 125 125 125 125 25 125 125 125 125 125 125 125 125 20 125 24 30 125 125 20 13 125 125 125 125 125 125 125 11 27 125 125 125 31 125 125 10 18 125 125 4 125 26
125 35 125 9 1 125 125 0 125 125 125 125 125 125 125 31 31 125 20 125 22 125 125 125 125 125 20 125 15 125 125 125 125 125 20 125 125 17 14 125 125 125 125 125 125 125 125 125 33 125 125 125 32 35 11 125 16 125 125 11 125 125 125 41 125 125 22 125 125 125 125 125 125 125 24 125 26 125 125 125 19 36 23 48 125 125 125 19 125
20 125 16 125 125 33 125 125 0 17 11 125 15 125 125 125 125 125 125 125 125 28 20 125 46 38 125 125 125 29 8 125 125 125 125 125 125 125 125 21 125 125 125 125 125 125 125 125 125 15 125 125 125 125 125 125 125 46 35 125 125 125 125 24 125 125 125 32 125 33 125 125 125 29 125 125 125 23 18 125 125 125 125 125 6 41 125 125 125
125 125 29 125 125 24 125 125 17 0 25 125 8 125 125 125 125 125 125 125 125 12 32 125 46 125 125 125 125 13 19 125 125 125 125 125 125 125 125 19 125 125 125 125 125 125 125 125 125 22 125 125 125 125 125 125 125 125 125 125 125 125 125 125 125 125 125 16 125 18 125 125 125 15 125 125 125 125 34 125 125 125 125 125 21 125 125 125 125
21 33 5 125 125 125 125 125 11 25 0 125 26 125 125 28 125 40 125 125 125 37 26 125 125 30 125 125 125 37 6 125 125 125 125 125 125 125 125 32 125 125 125 125 125 125 125 125 125 24 125 125 27 125 125 125 125 53 125 125 125 125 125 26 125 125 125 39 125 125 125 125 125 125 125 125 125 22 14 125 125 125 125 125 13 125 125 125 125
125 125 125 125 125 125 125 125 125 125 125 0 125 125 125 125 125 125 125 125 125 125 125 32 125 125 125 31 125 125 125 17 8 15 125 125 21 125 125 125 30 14 19 125 27 125 125 125 125 125 125 125 125 125 125 31 125 125 125 125 125 21 16 125 35 24 125 125 125 125 4 18 28 125 125 125 125 125 125 15 125 125 125 125 125 125 125 125 21
31 125 30 125 125 19 125 125 15 8 26 125 0 125 35 125 125 125 125 125 125 14 26 125 38 125 125 125 125 18 21 125 125 125 125 125 125 125 125 11 50 125 125 125 125 125 125 125 125 15 125 24 125 125 125 125 125 43 23 125 19 125 125 125 125 125 125 23 125 18 125 125 125 14 125 125 125 125 32 125 125 125 125 125 18 125 125 125 125
125 125 125 20 125 125 125 125 125 125 125 125 125 0 125 125 125 125 11 125 12 125 32 11 125 125 9 20 125 125 125 125 125 125 125 125 21 13 125 125 125 125 27 125 125 125 125 125 125 125 125 125 125 15 125 125 24 29 125 24 125 24 125 28 125 28 125 125 125 125 125 125 30 125 125 125 6 125 125 28 125 125 21 125 125 13 125 10 125
125 125 125 125 125 17 125 125 125 125 125 125 35 125 0 125 125 125 125 125 125 33 125 125 20 125 125 125 125 41 125 49 125 125 125 33 125 125 125 27 36 125 125 125 125 125 26 19 125 37 125 11 125 125 125 125 125 36 14 125 17 125 125 125 49 125 125 125 22 29 125 125 125 29 125 125 125 125 125 125 125 125 125 125 125 125 125 125 125
16 15 29 125 125 125 125 31 125 125 28 125 125 125 125 0 20 24 125 125 20 125 125 125 125 16 125 125 29 125 34 125 125 125 15 125 125 22 35 125 125 125 125 20 125 125 125 125 33 125 125 125 2 24 24 125 15 125 125 125 125 125 125 18 125 125 125 125 125 125 125 125 125 125 125 125 26 11 15 125 23 125 125 125 28 125 125 125 125
125 8 40 125 125 125 125 31 125 125 125 125 125 125 125 20 0 6 125 125 125 125 125 125 125 12 125 125 20 125 125 125 125 125 13 125 125 125 26 125 125 125 125 2 125 125 125 125 14 125 125 125 22 125 20 125 22 125 125 125 125 125 125 125 125 125 125 125 125 125 125 125 125 125 125 125 125 125 32 125 13 17 125 125 125 125 125 125 125
125 9 38 125 125 125 125 125 125 125 40 125 125 125 125 24 6 0 125 125 125 125 125 125 125 10 125 125 26 125 46 125 125 125 19 125 125 125 32 125 125 125 125 5 125 125 125 125 15 125 125 125 26 125 26 125 28 125 125 125 125 125 125 125 125 125 125 125 125 125 125 125 125 125 125 125 125 125 33 125 19 18 125 125 46 125 125 125 125
125 125 125 11 19 125 21 20 125 125 125 125 125 11 125 125 125 125 0 125 15 125 125 18 125 125 3 30 125 125 125 125 125 125 125 125 26 13 33 125 125 125 34 125 125 34 125 125 125 125 125 125 125 24 125 125 23 39 125 14 125 25 37 125 125 27 22 125 125 125 125 125 125 125 23 125 13 125 125 31 125 125 11 125 125 24 19 2 36
125 125 125 125 125 125 30 125 125 125 125 125 125 125 125 125 125 125 125 0 125 125 125 125 125 125 125 125 125 125 125 125 125 125 125 125 125 125 125 125 125 125 125 125 3 11 125 125 125 125 11 125 125 125 125 125 125 125 125 125 125 125 125 125 125 20 125 125 125 125 125 13 125 125 39 6 125 125 125 125 125 125 125 20 125 125 125 125 12
24 32 125 18 22 125 125 22 125 125 125 125 125 12 125 20 125 125 15 125 0 125 28 23 125 35 12 125 125 125 125 125 125 125 22 125 125 4 33 125 125 125 125 125 125 125 125 125 125 125 125 125 20 13 23 125 12 36 125 125 125 125 125 21 125 125 125 125 125 125 125 125 125 125 125 125 7 23 31 125 125 125 125 125 39 17 125 13 125
125 125 41 125 125 18 125 125 28 12 37 125 14 125 33 125 125 125 125 125 125 0 125 125 43 125 125 125 125 8 32 125 125 125 125 125 125 125 125 20 125 125 125 125 125 125 125 52 125 28 125 25 125 125 125 125 125 125 125 125 22 125 125 125 125 125 125 13 125 6 125 125 125 5 125 125 125 125 125 125 125 125 125 125 32 125 125 125 125
10 125 30 125 125 125 125 125 20 32 26 125 26 32 125 125 125 125 125 125 28 125 0 35 34 125 38 30 125 125 27 125 125 125 125 41 44 32 125 22 36 125 42 125 125 125 125 125 125 11 125 125 23 17 125 125 34 28 31 125 125 125 125 7 125 125 125 125 125 125 125 125 36 125 125 125 28 14 18 125 125 125 125 125 14 21 125 125 125
125 125 125 29 125 125 31 125 125 125 125 32 125 11 125 125 125 125 18 125 23 125 35 0 125 125 18 13 125 125 125 34 125 125 125 125 11 24 125 125 25 30 16 125 125 125 125 125 125 43 125 125 125 19 125 125 125 22 125 32 125 17 29 125 125 23 38 125 125 125 125 125 20 125 125 125 16 125 125 19 125 125 25 125 125 14 125 19 125
43 125 125 125 125 26 125 125 46 46 125 125 38 125 20 125 125 125 125 125 125 43 34 125 0 125 125 26 125 125 125 32 125 125 125 15 125 125 125 27 16 125 31 125 125 125 23 21 125 31 125 20 125 37 125 41 125 16 17 125 21 125 125 125 40 125 125 125 8 41 125 125 21 39 125 125 125 125 125 125 125 125 125 125 43 33 125 125 125
28 4 28 125 125 125 125 125 38 125 30 125 125 125 125 16 12 10 125 125 35 125 125 125 125 0 125 125 125 125 36 125 125 125 19 125 125 125 125 125 125 125 125 10 125 125 125 125 25 125 125 125 18 125 28 125 26 125 125 125 125 125 125 32 125 125 125 69 125 125 125 125 125 125 125 125 125 24 22 125 23 125 125 125 36 125 125 125 125
125 125 125 11 19 125 125 20 125 125 125 125 125 9 125 125 125 125 3 125 12 125 38 18 125 125 0 29 125 125 125 125 125 125 125 125 26 10 125 125 125 125 125 125 125 125 125 125 125 125 125 125 32 21 125 125 20 125 125 15 125 27 125 33 125 125 125 125 125 125 125 125 125 125 125 125 10 125 125 125 125 125 14 125 125 21 125 1 125
125 125 125 125 125 125 125 125 125 125 125 31 125 20 125 125 125 125 30 125 125 125 30 13 26 125 29 0 125 125 125 27 31 125 125 21 16 125 125 125 14 35 12 125 125 125 125 125 125 36 125 125 125 20 125 125 125 10 125 125 125 25 35 31 125 125 125 125 125 125 31 125 9 125 125 125 23 125 125 23 125 125 37 125 44 14 125 125 125
125 26 125 24 16 125 125 15 125 125 125 125 125 125 125 29 20 26 125 125 125 125 125 125 125 125 125 125 0 125 125 125 125 125 15 125 125 27 7 125 125 125 125 22 125 125 125 125 18 125 125 125 125 125 7 125 19 125 125 125 125 125 125 125 125 125 36 125 125 125 125 125 125 125 125 125 125 125 125 125 7 20 125 125 125 125 125 125 125
125 125 40 125 125 26 125 125 29 13 37 125 18 125 41 125 125 125 125 125 125 8 125 125 125 125 125 125 125 0 31 125 125 125 125 125 125 125 125 27 125 125 125 125 125 125 125 125 125 34 125 125 125 125 125 125 125 125 125 125 125 125 125 125 125 125 125 5 125 12 125 125 125 12 125 125 125 125 125 125 125 125 125 125 125 125 125 125 125
25 125 9 125 125 125 125 125 8 19 6 125 21 125 125 34 125 46 125 125 125 32 27 125 125 36 125 125 125 31 0 125 125 125 125 125 125 125 125 29 125 125 125 125 125 125 125 125 125 23 125 125 125 125 125 125 125 125 125 125 125 125 125 125 125 125 125 33 125 38 125 125 125 34 125 125 125 125 19 125 125 125 125 125 12 125 125 125 125
125 125 125 125 125 125 125 125 125 125 125 17 125 125 49 125 125 125 125 125 125 125 125 34 32 125 125 27 125 125 125 0 10 32 125 17 26 125 125 125 19 30 17 125 44 125 31 37 125 58 125 125 125 125 125 20 125 27 125 125 125 125 125 125 23 125 125 125 27 125 12 34 19 125 125 125 125 125 125 24 125 125 125 125 125 41 125 125 125
125 125 125 125 125 125 125 125 125 125 125 8 125 125 125 125 125 125 125 125 125 125 125 125 125 125 125 31 125 125 125 10 0 23 125 26 25 125 125 125 26 22 19 125 35 125 40 125 125 125 125 125 125 125 125 24 125 125 125 125 125 125 23 125 28 125 125 125 125 125 3 26 25 125 125 125 125 125 125 20 125 125 125 125 125 125 125 125 29
125 125 125 125 125 125 125 125 125 125 125 15 125 125 125 125 125 125 125 125 125 125 125 125 125 125 125 125 125 125 125 32 23 0 125 46 27 125 125 125 125 7 30 125 12 15 125 125 125 125 11 125 125 125 125 45 125 125 125 125 125 21 9 125 49 19 125 125 125 125 20 8 125 125 125 125 125 125 125 19 125 125 125 125 125 125 125 125 11
125 15 42 25 21 125 125 20 125 125 125 125 125 125 125 15 13 19 125 125 22 125 125 125 125 19 125 125 15 125 125 125 125 125 0 125 125 20 21 125 125 125 125 14 125 125 125 125 22 125 125 125 17 125 10 125 10 125 125 125 125 125 125 31 125 125 125 125 125 125 125 125 125 125 125 125 125 26 30 125 9 25 125 125 125 125 125 125 125
125 125 125 125 125 125 125 125 125 125 125 125 125 125 33 125 125 125 125 125 125 125 41 125 15 125 125 21 125 125 125 17 26 46 125 0 125 125 125 41 7 125 20 125 125 125 22 25 125 42 125 34 125 125 125 30 125 14 32 125 125 125 125 125 29 125 125 125 12 56 28 125 12 125 125 125 125 125 125 125 125 125 125 125 125 125 125 125 125
125 125 125 125 125 125 125 125 125 125 125 21 125 21 125 125 125 125 26 125 125 125 44 11 125 125 26 16 125 125 125 26 25 27 125 125 0 125 125 125 24 20 10 125 125 125 125 125 125 125 125 125 125 125 125 125 125 25 125 38 125 9 19 125 125 16 125 125 125 125 23 22 19 125 125 125 26 125 125 8 125 125 28 125 125 24 125 125 22
125 125 125 13 17 125 125 17 125 125 125 125 125 13 125 22 125 125 13 125 4 125 32 24 125 125 10 125 27 125 125 125 125 125 20 125 125 0 29 125 125 125 125 125 125 125 125 125 125 125 125 125 22 17 20 125 11 125 125 19 125 125 125 26 125 125 31 125 125 125 125 125 125 125 125 125 9 26 34 125 26 125 24 125 125 21 125 11 125
125 125 125 23 14 125 42 14 125 125 125 125 125 125 125 35 26 32 33 125 33 125 125 125 125 125 125 125 7 125 125 125 125 125 21 125 125 29 0 125 125 125 125 125 125 63 125 125 23 125 125 125 125 125 11 125 23 125 125 23 125 125 125 125 125 125 31 125 125 125 125 125 125 125 34 125 125 125 125 125 14 25 36 57 125 125 38 32 125
125 125 125 125 125 13 125 125 21 19 32 125 11 125 27 125 125 125 125 125 125 20 22 125 27 125 125 125 125 27 29 125 125 125 125 41 125 125 125 0 39 125 125 125 125 125 125 43 125 11 125 16 125 125 125 125 125 33 14 125 10 125 125 125 125 125 125 125 35 22 125 125 41 17 125 125 125 125 125 125 125 125 125 125 21 37 125 125 125
125 125 125 125 125 125 125 125 125 125 125 30 50 125 36 125 125 125 125 125 125 125 36 25 16 125 125 14 125 125 125 19 26 125 125 7 24 125 125 39 0 125 15 125 125 125 29 32 125 39 125 125 125 125 125 35 125 8 33 125 125 125 125 125 35 125 125 125 17 125 27 125 5 125 125 125 125 125 125 125 125 125 125 125 49 26 125 125 125
125 125 125 125 125 125 125 125 125 125 125 14 125 125 125 125 125 125 125 125 125 125 125 30 125 125 125 35 125 125 125 30 22 7 125 125 20 125 125 125 125 0 25 125 14 125 125 125 125 125 7 125 125 125 125 46 125 125 125 125 125 14 2 125 125 12 125 125 125 125 19 4 125 125 125 125 125 125 125 12 125 125 35 125 125 125 125 125 7
125 125 125 125 125 125 125 125 125 125 125 19 125 27 125 125 125 125 34 125 125 125 42 16 31 125 125 12 125 125 125 17 19 30 125 20 10 125 125 125 15 25 0 125 125 125 125 125 125 125 125 125 125 125 125 38 125 18 125 125 125 18 25 125 40 25 125 125 125 125 19 28 10 125 125 125 125 125 125 13 125 125 125 125 125 25 125 125 125
125 7 38 125 125 125 125 125 125 125 125 125 125 125 125 20 2 5 125 125 125 125 125 125 125 10 125 125 22 125 125 125 125 125 14 125 125 125 125 125 125 125 125 0 125 125 125 125 15 125 125 125 125 125 22 125 24 125 125 125 125 125 125 125 125 125 125 125 125 125 125 125 125 125 125 125 125 125 31 125 15 18 125 125 125 125 125 125 125
125 125 125 125 125 125 31 125 125 125 125 27 125 125 125 125 125 125 125 3 125 125 125 125 125 125 125 125 125 125 125 44 35 12 125 125 125 125 125 125 125 14 125 125 0 11 125 125 125 125 11 125 125 125 125 57 125 125 125 125 125 25 14 125 61 19 125 125 125 125 32 11 125 125 125 9 125 125 125 26 125 125 38 22 125 125 125 125 11
125 125 125 125 125 125 22 125 125 125 125 125 125 125 125 125 125 125 34 11 125 125 125 125 125 125 125 125 125 125 125 125 125 15 125 125 125 125 63 125 125 125 125 125 11 0 125 125 125 125 4 125 125 125 125 125 125 125 125 125 125 16 10 125 125 9 34 125 125 125 125 9 125 125 32 13 125 125 125 125 125 125 27 19 125 125 25 125 5
125 125 125 125 125 41 125 125 125 125 125 125 125 125 26 125 125 125 125 125 125 125 125 125 23 125 125 125 125 125 125 31 40 125 125 22 125 125 125 125 29 125 125 125 125 125 0 8 125 125 125 125 125 125 125 27 125 35 34 125 125 125 125 125 24 125 125 125 15 54 125 125 34 125 125 125 125 125 125 125 125 125 125 125 125 125 125 125 125
125 125 125 125 125 34 125 125 125 125 125 125 125 125 19 125 125 125 125 125 125 52 125 125 21 125 125 125 125 125 125 37 125 125 125 25 125 125 125 43 32 125 125 125 125 125 8 0 125 125 125 28 125 125 125 34 125 125 29 125 33 125 125 125 31 125 125 125 15 47 125 125 125 47 125 125 125 125 125 125 125 125 125 125 125 125 125 125 125
125 22 125 125 125 125 125 33 125 125 125 125 125 125 125 33 14 15 125 125 125 125 125 125 125 25 125 125 18 125 125 125 125 125 22 125 125 125 23 125 125 125 125 15 125 125 125 125 0 125 125 125 125 125 23 125 31 125 125 125 125 125 125 125 125 125 125 125 125 125 125 125 125 125 125 125 125 125 125 125 16 4 125 125 125 125 125 125 125
18 125 29 125 125 24 125 125 15 22 24 125 15 125 37 125 125 125 125 125 125 28 11 43 31 125 125 36 125 34 23 58 125 125 125 42 125 125 125 11 39 125 125 125 125 125 125 125 125 0 125 26 125 27 125 125 125 31 23 125 21 125 125 18 125 125 125 38 40 32 125 125 40 27 125 125 38 23 23 125 125 125 125 125 12 30 125 125 125
125 125 125 125 125 125 25 125 125 125 125 125 125 125 125 125 125 125 125 11 125 125 125 125 125 125 125 125 125 125 125 125 125 11 125 125 125 125 125 125 125 7 125 125 11 4 125 125 125 125 0 125 125 125 125 53 125 125 125 125 125 14 6 125 125 9 125 125 125 125 125 4 125 125 36 16 125 125 125 16 125 125 30 23 125 125 29 125 1
125 125 125 125 125 7 125 125 125 125 125 125 24 125 11 125 125 125 125 125 125 25 125 125 20 125 125 125 125 125 125 125 125 125 125 34 125 125 125 16 125 125 125 125 125 125 125 28 125 26 125 0 125 125 125 125 125 125 4 125 6 125 125 125 125 125 125 125 25 22 125 125 125 20 125 125 125 125 125 125 125 125 125 125 125 125 125 125 125
14 17 29 33 125 125 125 32 125 125 27 125 125 125 125 2 22 26 125 125 20 125 23 125 125 18 32 125 125 125 125 125 125 125 17 125 125 22 125 125 125 125 125 125 125 125 125 125 125 125 125 125 0 22 25 125 16 125 125 125 125 125 125 16 125 125 125 125 125 125 125 125 125 125 125 125 25 9 14 125 25 125 125 125 26 29 125 125 125
18 125 125 125 125 125 125 35 125 125 125 125 125 15 125 24 125 125 24 125 13 125 17 19 37 125 21 20 125 125 125 125 125 125 125 125 125 17 125 125 125 125 125 125 125 125 125 125 125 27 125 125 22 0 125 125 24 24 125 125 125 125 125 13 125 125 125 125 125 125 125 125 29 125 125 125 11 20 27 125 125 125 125 125 31 7 125 22 125
125 24 125 19 12 125 125 11 125 125 125 125 125 125 125 24 20 26 125 125 23 125 125 125 125 28 125 125 7 125 125 125 125 125 10 125 125 20 11 125 125 125 125 22 125 125 125 125 23 125 125 125 25 125 0 125 12 125 125 22 125 125 125 125 125 125 34 125 125 125 125 125 125 125 125 125 29 125 39 125 8 26 125 59 125 125 125 26 125
125 125 125 125 125 125 125 125 125 125 125 31 125 125 125 125 125 125 125 125 125 125 125 125 41 125 125 125 125 125 125 20 24 45 125 30 125 125 125 125 35 46 38 125 57 125 27 34 125 125 53 125 125 125 125 0 125 125 125 125 125 125 47 125 4 125 125 125 34 125 27 49 37 125 125 125 125 125 125 44 125 125 125 125 125 125 125 125 53
27 22 44 18 17 125 125 16 125 125 125 125 125 24 125 15 22 28 23 125 12 125 34 125 125 26 20 125 19 125 125 125 125 125 10 125 125 11 23 125 125 125 125 24 125 125 125 125 31 125 125 125 16 24 12 125 0 125 125 24 125 125 125 26 125 125 36 125 125 125 125 125 125 125 125 125 19 23 29 125 16 35 125 125 125 29 125 21 125
36 125 125 125 125 125 125 125 46 125 53 125 43 29 36 125 125 125 39 125 36 125 28 22 16 125 125 10 125 125 125 27 125 125 125 14 25 125 125 33 8 125 18 125 125 125 35 125 125 31 125 125 125 24 125 125 125 0 29 125 32 34 125 31 44 125 125 125 20 125 34 125 9 49 125 125 31 125 45 31 125 125 125 125 41 19 125 125 125
125 125 125 125 125 9 125 125 35 125 125 125 23 125 14 125 125 125 125 125 125 125 31 125 17 125 125 125 125 125 125 125 125 125 125 32 125 125 125 14 33 125 125 125 125 125 34 29 125 23 125 4 125 125 125 125 125 29 0 125 5 125 125 125 125 125 125 125 23 24 125 125 125 22 125 125 125 125 125 125 125 125 125 125 125 125 125 125 125
125 125 125 6 10 125 20 11 125 125 125 125 125 24 125 125 125 125 14 125 125 125 125 32 125 125 15 125 125 125 125 125 125 125 125 125 38 19 23 125 125 125 125 125 125 125 125 125 125 125 125 125 125 125 22 125 24 125 125 0 125 35 45 125 125 35 13 125 125 125 125 125 125 125 14 125 125 125 125 125 125 125 13 37 125 125 16 14 125
125 125 125 125 125 6 125 125 125 125 125 125 19 125 17 125 125 125 125 125 125 22 125 125 21 125 125 125 125 125 125 125 125 125 125 125 125 125 125 10 125 125 125 125 125 125 125 33 125 21 125 6 125 125 125 125 125 32 5 125 0 125 125 125 125 125 125 125 28 21 125 125 125 18 125 125 125 125 125 125 125 125 125 125 125 125 125 125 125
125 125 125 35 44 125 24 125 125 125 125 21 125 24 125 125 125 125 25 125 125 125 125 17 125 125 27 25 125 125 125 125 125 21 125 125 9 125 125 125 125 14 18 125 25 16 125 125 125 125 14 125 125 125 125 125 125 34 125 35 125 0 13 125 125 7 35 125 125 125 24 15 28 125 34 125 30 125 125 7 125 125 24 32 125 31 26 27 14
125 125 125 125 125 125 30 125 125 125 125 16 125 125 125 125 125 125 37 125 125 125 125 29 125 125 125 35 125 125 125 125 23 9 125 125 19 125 125 125 125 2 25 125 14 10 125 125 125 125 6 125 125 125 125 47 125 125 125 45 125 13 0 125 125 11 125 125 125 125 20 3 125 125 125 125 125 125 125 12 125 125 33 125 125 125 33 125 5
5 125 125 125 125 125 125 41 24 125 26 125 125 28 125 18 125 125 125 125 21 125 7 125 125 32 33 31 125 125 125 125 125 125 31 125 125 26 125 125 125 125 125 125 125 125 125 125 125 18 125 125 16 13 125 125 26 31 125 125 125 125 125 0 125 125 125 125 125 125 125 125 125 125 125 125 23 9 15 125 125 125 125 125 18 19 125 125 125
125 125 125 125 125 125 125 125 125 125 125 35 125 125 49 125 125 125 125 125 125 125 125 125 40 125 125 125 125 125 125 23 28 49 125 29 125 125 125 125 35 125 40 125 61 125 24 31 125 125 125 125 125 125 125 4 125 44 125 125 125 125 125 125 0 125 125 125 32 77 31 125 38 125 125 125 125 125 125 125 125 125 125 125 125 125 125 125 125
125 125 125 36 125 125 20 125 125 125 125 24 125 28 125 125 125 125 27 20 125 125 125 23 125 125 125 125 125 125 125 125 125 19 125 125 16 125 125 125 125 12 25 125 19 9 125 125 125 125 9 125 125 125 125 125 125 125 125 35 125 7 11 125 125 0 32 125 125 125 125 11 125 125 30 22 125 125 125 12 125 125 22 25 125 125 23 125 9
125 125 125 18 21 125 13 22 125 125 125 125 125 125 125 125 125 125 22 125 125 125 125 38 125 125 125 125 36 125 125 125 125 125 125 125 125 31 31 125 125 125 125 125 125 34 125 125 125 125 125 125 125 125 34 125 36 125 125 13 125 35 125 125 125 32 0 125 125 125 125 125 125 125 2 38 125 125 125 125 125 125 13 26 125 125 9 23 125
125 125 41 125 125 31 125 125 32 16 39 125 23 125 125 125 125 125 125 125 125 13 125 125 125 69 125 125 125 5 33 125 125 125 125 125 125 125 125 125 125 125 125 125 125 125 125 125 125 38 125 125 125 125 125 125 125 125 125 125 125 125 125 125 125 125 125 0 125 17 125 125 125 17 125 125 125 125 50 125 125 125 125 125 38 125 125 125 125
125 125 125 125 125 32 125 125 125 125 125 125 125 125 22 125 125 125 125 125 125 125 125 125 8 125 125 125 125 125 125 27 125 125 125 12 125 125 125 35 17 125 125 125 125 125 15 15 125 40 125 25 125 125 125 34 125 20 23 125 28 125 125 125 32 125 125 125 0 47 125 125 22 45 125 125 125 125 125 125 125 125 125 125 125 125 125 125 125
125 125 47 125 125 15 125 125 33 18 125 125 18 125 29 125 125 125 125 125 125 6 125 125 41 125 125 125 125 12 38 125 125 125 125 56 125 125 125 22 125 125 125 125 125 125 54 47 125 32 125 22 125 125 125 125 125 125 24 125 21 125 125 125 77 125 125 17 47 0 125 125 125 5 125 125 125 125 125 125 125 125 125 125 125 125 125 125 125
125 125 125 125 125 125 125 125 125 125 125 4 125 125 125 125 125 125 125 125 125 125 125 125 125 125 125 31 125 125 125 12 3 20 125 28 23 125 125 125 27 19 19 125 32 125 125 125 125 125 125 125 125 125 125 27 125 34 125 125 125 24 20 125 31 125 125 125 125 125 0 22 26 125 125 125 125 125 125 17 125 125 125 125 125 125 125 125 125
125 125 125 125 125 125 125 125 125 125 125 18 125 125 125 125 125 125 125 13 125 125 125 125 125 125 125 125 125 125 125 34 26 8 125 125 22 125 125 125 125 4 28 125 11 9 125 125 125 125 4 125 125 125 125 49 125 125 125 125 125 15 3 125 125 11 125 125 125 125 22 0 125 125 125 125 125 125 125 15 125 125 33 125 125 125 125 125 3
125 125 125 125 125 125 125 125 125 125 125 28 125 30 125 125 125 125 125 125 125 125 36 20 21 125 125 9 125 125 125 19 25 125 125 12 19 125 125 41 5 125 10 125 125 125 34 125 125 40 125 125 125 29 125 37 125 9 125 125 125 28 125 125 38 125 125 125 22 125 26 125 0 125 125 125 125 125 125 24 125 125 125 125 125 23 125 125 125
125 125 125 125 125 13 125 125 29 15 125 125 14 125 29 125 125 125 125 125 125 5 125 125 39 125 125 125 125 12 34 125 125 125 125 125 125 125 125 17 125 125 125 125 125 125 125 47 125 27 125 20 125 125 125 125 125 49 22 125 18 125 125 125 125 125 125 17 45 5 125 125 125 0 125 125 125 125 125 125 125 125 125 125 32 125 125 125 125
125 125 125 125 23 125 11 24 125 125 125 125 125 125 125 125 125 125 23 39 125 125 125 125 125 125 125 125 125 125 125 125 125 125 125 125 125 125 34 125 125 125 125 125 125 32 125 125 125 125 36 125 125 125 125 125 125 125 125 14 125 34 125 125 125 30 2 125 125 125 125 125 125 125 0 36 125 125 125 125 125 125 13 24 125 125 8 125 125
125 125 125 125 125 125 27 125 125 125 125 125 125 125 125 125 125 125 125 6 125 125 125 125 125 125 125 125 125 125 125 125 125 125 125 125 125 125 125 125 125 125 125 125 9 13 125 125 125 125 16 125 125 125 125 125 125 125 125 125 125 125 125 125 125 22 38 125 125 125 125 125 125 125 36 0 125 125 125 125 125 125 36 14 125 125 31 125 16
27 125 125 20 125 125 125 26 125 125 125 125 125 6 125 26 125 125 13 125 7 125 28 16 125 125 10 23 125 125 125 125 125 125 125 125 26 9 125 125 125 125 125 125 125 125 125 125 125 38 125 125 25 11 29 125 19 31 125 125 125 30 125 23 125 125 125 125 125 125 125 125 125 125 125 125 0 26 125 125 125 125 125 125 125 12 125 12 125
5 24 24 125 125 125 125 125 23 125 22 125 125 125 125 11 125 125 125 125 23 125 14 125 125 24 125 125 125 125 125 125 125 125 26 125 125 26 125 125 125 125 125 125 125 125 125 125 125 23 125 125 9 20 125 125 23 125 125 125 125 125 125 9 125 125 125 125 125 125 125 125 125 125 125 125 26 0 8 125 125 125 125 125 18 26 125 125 125
9 24 16 125 125 125 125 125 18 34 14 125 32 125 125 15 32 33 125 125 31 125 18 125 125 22 125 125 125 125 19 125 125 125 30 125 125 34 125 125 125 125 125 31 125 125 125 125 125 23 125 125 14 27 39 125 29 45 125 125 125 125 125 15 125 125 125 50 125 125 125 125 125 125 125 125 125 8 0 125 125 125 125 125 14 125 125 125 125
125 125 125 125 125 125 31 125 125 125 125 15 125 28 125 125 125 125 31 125 125 125 125 19 125 125 125 23 125 125 125 24 20 19 125 125 8 125 125 125 125 12 13 125 26 125 125 125 125 125 16 125 125 125 125 44 125 31 125 125 125 7 12 125 125 12 125 125 125 125 17 15 24 125 125 125 125 125 125 0 125 125 31 125 125 32 125 125 16
125 19 125 125 20 125 125 19 125 125 125 125 125 125 125 23 13 19 125 125 125 125 125 125 125 23 125 125 7 125 125 125 125 125 9 125 125 26 14 125 125 125 125 15 125 125 125 125 16 125 125 125 25 125 8 125 16 125 125 125 125 125 125 125 125 125 125 125 125 125 125 125 125 125 125 125 125 125 125 125 0 19 125 125 125 125 125 125 125
125 25 125 125 37 125 125 36 125 125 125 125 125 125 125 125 17 18 125 125 125 125 125 125 125 125 125 125 20 125 125 125 125 125 25 125 125 125 25 125 125 125 125 18 125 125 125 125 4 125 125 125 125 125 26 125 35 125 125 125 125 125 125 125 125 125 125 125 125 125 125 125 125 125 125 125 125 125 125 125 19 0 125 125 125 125 125 125 125
125 125 125 15 22 125 10 23 125 125 125 125 125 21 125 125 125 125 11 125 125 125 125 25 125 125 14 37 125 125 125 125 125 125 125 125 28 24 36 125 125 35 125 125 38 27 125 125 125 125 30 125 125 125 125 125 125 125 125 13 125 24 33 125 125 22 13 125 125 125 125 33 125 125 13 36 125 125 125 31 125 125 0 28 125 34 8 13 30
125 125 125 41 47 125 18 48 125 125 125 125 125 125 125 125 125 125 125 20 125 125 125 125 125 125 125 125 125 125 125 125 125 125 125 125 125 125 57 125 125 125 125 125 22 19 125 125 125 125 23 125 125 125 59 125 125 125 125 37 125 32 125 125 125 25 26 125 125 125 125 125 125 125 24 14 125 125 125 125 125 125 28 0 125 125 21 125 24
15 125 18 125 125 125 125 125 6 21 13 125 18 125 125 28 125 46 125 125 39 32 14 125 43 36 125 44 125 125 12 125 125 125 125 125 125 125 125 21 49 125 125 125 125 125 125 125 125 12 125 125 26 31 125 125 125 41 125 125 125 125 125 18 125 125 125 38 125 125 125 125 125 32 125 125 125 18 14 125 125 125 125 125 0 35 125 125 125
24 125 125 125 125 125 125 125 41 125 125 125 125 13 125 125 125 125 24 125 17 125 21 14 33 125 21 14 125 125 125 41 125 125 125 125 24 21 125 37 26 125 25 125 125 125 125 125 125 30 125 125 29 7 125 125 29 19 125 125 125 31 125 19 125 125 125 125 125 125 125 125 23 125 125 125 12 26 125 32 125 125 34 125 35 0 125 23 125
125 125 125 20 26 125 4 125 125 125 125 125 125 125 125 125 125 125 19 125 125 125 125 125 125 125 125 125 125 125 125 125 125 125 125 125 125 125 38 125 125 125 125 125 125 25 125 125 125 125 29 125 125 125 125 125 125 125 125 16 125 26 33 125 125 23 9 125 125 125 125 125 125 125 8 31 125 125 125 125 125 125 8 21 125 125 0 125 125
125 125 125 10 18 125 125 19 125 125 125 125 125 10 125 125 125 125 2 125 13 125 125 19 125 125 1 125 125 125 125 125 125 125 125 125 125 11 32 125 125 125 125 125 125 125 125 125 125 125 125 125 125 22 26 125 21 125 125 14 125 27 125 125 125 125 23 125 125 125 125 125 125 125 125 125 12 125 125 125 125 125 13 125 125 23 125 0 125
125 125 125 125 125 125 26 125 125 125 125 21 125 125 125 125 125 125 36 12 125 125 125 125 125 125 125 125 125 125 125 125 29 11 125 125 22 125 125 125 125 7 125 125 11 5 125 125 125 125 1 125 125 125 125 53 125 125 125 125 125 14 5 125 125 9 125 125 125 125 125 3 125 125 125 16 125 125 125 16 125 125 30 24 125 125 125 125 0
EOF
